c generated by sgen
p cnf 53 116
-2 -3 -4 0
-1 -3 -4 0
-1 -2 -4 0
-1 -2 -3 0
-6 -7 -8 0
-5 -7 -8 0
-5 -6 -8 0
-5 -6 -7 0
-10 -11 -12 0
-9 -11 -12 0
-9 -10 -12 0
-9 -10 -11 0
-14 -15 -16 0
-13 -15 -16 0
-13 -14 -16 0
-13 -14 -15 0
-18 -19 -20 0
-17 -19 -20 0
-17 -18 -20 0
-17 -18 -19 0
-22 -23 -24 0
-21 -23 -24 0
-21 -22 -24 0
-21 -22 -23 0
-26 -27 -28 0
-25 -27 -28 0
-25 -26 -28 0
-25 -26 -27 0
-30 -31 -32 0
-29 -31 -32 0
-29 -30 -32 0
-29 -30 -31 0
-34 -35 -36 0
-33 -35 -36 0
-33 -34 -36 0
-33 -34 -35 0
-38 -39 -40 0
-37 -39 -40 0
-37 -38 -40 0
-37 -38 -39 0
-42 -43 -44 0
-41 -43 -44 0
-41 -42 -44 0
-41 -42 -43 0
-46 -47 -48 0
-45 -47 -48 0
-45 -46 -48 0
-45 -46 -47 0
-49 -50 -51 0
-49 -50 -52 0
-49 -50 -53 0
-49 -51 -52 0
-49 -51 -53 0
-49 -52 -53 0
-50 -51 -52 0
-50 -51 -53 0
-50 -52 -53 0
-51 -52 -53 0
41 47 20 0
24 47 20 0
24 41 20 0
24 41 47 0
52 23 11 0
36 23 11 0
36 52 11 0
36 52 23 0
51 39 46 0
31 39 46 0
31 51 46 0
31 51 39 0
50 15 43 0
5 15 43 0
5 50 43 0
5 50 15 0
35 16 18 0
30 16 18 0
30 35 18 0
30 35 16 0
48 14 25 0
9 14 25 0
9 48 25 0
9 48 14 0
28 19 49 0
1 19 49 0
1 28 49 0
1 28 19 0
22 13 38 0
2 13 38 0
2 22 38 0
2 22 13 0
12 44 32 0
3 44 32 0
3 12 32 0
3 12 44 0
34 42 26 0
37 42 26 0
37 34 26 0
37 34 42 0
29 8 27 0
21 8 27 0
21 29 27 0
21 29 8 0
10 40 17 0
7 40 17 0
7 10 17 0
7 10 40 0
4 53 45 0
4 53 33 0
4 53 6 0
4 45 33 0
4 45 6 0
4 33 6 0
53 45 33 0
53 45 6 0
53 33 6 0
45 33 6 0
